NAME: oliver30
TYPE: TSP
COMMENT: 30-Oliver
DIMENSION: 30
EDGE_WEIGHT_TYPE: GEO
EDGE_WEIGHT_FORMAT: FUNCTION 
DISPLAY_DATA_TYPE: COORD_DISPLAY
NODE_COORD_SECTION
   1  54.00       67.00
   2  54.00       62.00
   3  37.00       84.00
   4  41.00       94.00
   5   2.00       99.00
   6   7.00       64.00
   7  25.00       62.00
   8  22.00       60.00
   9  18.00       54.00
  10   4.00       50.00
  11  13.00       40.00
  12  18.00       40.00
  13  24.00       42.00
  14  25.00       38.00
  15  44.00       35.00
  16  41.00       26.00
  17  45.00       21.00
  18  58.00       35.00
  19  62.00       32.00
  20  82.00        7.00
  21  91.00       38.00
  22  83.00       46.00
  23  71.00       44.00
  24  64.00       60.00
  25  68.00       58.00
  26  83.00       69.00
  27  87.00       76.00
  28  74.00       78.00
  29  71.00       71.00
  30  58.00       69.00
EOF



